\ Equation counts
\     Total        E        G        L        N        X        C        B
\	0	0	0	0
\
\ Variable counts
\                  x        b        i      s1s      s2s       sc       si
\     Total     cont   binary  integer     sos1     sos2    scont     sint
\	40	40

\ Nonzero counts
\     Total    const       NL      DLL
\
\
Minimize
 obj: [ - 24.5 x_1 * x_1 - 23.0 x_1 * x_4 - 11.5 x_1 * x_8 - 17.0 x_1 * x_9 - 22.5 x_1 * x_10 - 18.0 x_1 * x_12 - 4.5 x_1 * x_13 - 24.0 x_1 * x_16 + 4.0 x_1 * x_18 - 14.5 x_1 * x_19 - 12.5 x_1 * x_22 + 20.5 x_1 * x_23 + 0.5 x_1 * x_25 + 5.5 x_1 * x_31 + 10.0 x_1 * x_32 - 4.5 x_1 * x_34 + 10.0 x_1 * x_35 - 11.0 x_1 * x_36 + 13.5 x_1 * x_37 - 5.0 x_1 * x_39 + 16.0 x_2 * x_4 - 24.0 x_2 * x_5 + 15.0 x_2 * x_6 + 3.5 x_2 * x_7 - 15.0 x_2 * x_10 + 10.5 x_2 * x_11 - 2.5 x_2 * x_12 + 21.0 x_2 * x_15 + 3.5 x_2 * x_17 - 10.0 x_2 * x_18 - 23.0 x_2 * x_20 + 12.0 x_2 * x_25 - 10.0 x_2 * x_27 - 20.0 x_2 * x_29 - 8.0 x_2 * x_30 - 13.5 x_2 * x_32 - 20.0 x_2 * x_33 + 15.5 x_2 * x_34 + 8.0 x_2 * x_35 + 16.5 x_2 * x_37 + 2.5 x_2 * x_39 - 8.5 x_2 * x_40 - 18.0 x_3 * x_3 + 0.5 x_3 * x_4 + 4.5 x_3 * x_6 - 5.0 x_3 * x_7 - 2.0 x_3 * x_8 + 19.5 x_3 * x_11 - 8.5 x_3 * x_12 + 3.0 x_3 * x_13 - 6.0 x_3 * x_16 + 14.5 x_3 * x_18 + 14.0 x_3 * x_21 - 18.0 x_3 * x_22 + 18.5 x_3 * x_24 + 15.0 x_3 * x_25 + 21.5 x_3 * x_28 - 3.0 x_3 * x_30 - 20.5 x_3 * x_32 - 3.0 x_3 * x_39 - 23.0 x_4 * x_1 + 16.0 x_4 * x_2 + 0.5 x_4 * x_3 + 21.0 x_4 * x_4 - 11.0 x_4 * x_5 + 15.0 x_4 * x_6 + 22.5 x_4 * x_8 + 20.5 x_4 * x_9 - 5.0 x_4 * x_10 + 18.0 x_4 * x_14 + 21.5 x_4 * x_17 - 15.0 x_4 * x_18 + 1.0 x_4 * x_20 - 6.5 x_4 * x_21 + 2.0 x_4 * x_22 + 8.0 x_4 * x_24 - 19.5 x_4 * x_29 - 5.5 x_4 * x_34 - 16.5 x_4 * x_35 + 23.0 x_4 * x_36 + 14.5 x_4 * x_37 + 24.0 x_4 * x_38 - 7.5 x_4 * x_39 - 24.0 x_5 * x_2 - 11.0 x_5 * x_4 - 9.5 x_5 * x_5 + 14.0 x_5 * x_6 + 13.0 x_5 * x_7 - 21.5 x_5 * x_8 + 5.5 x_5 * x_9 + 24.5 x_5 * x_10 - 18.5 x_5 * x_11 - 24.0 x_5 * x_13 - 14.5 x_5 * x_17 + 2.0 x_5 * x_18 - 1.5 x_5 * x_20 - 17.0 x_5 * x_21 + 18.0 x_5 * x_25 + 10.0 x_5 * x_26 + 10.5 x_5 * x_27 + 17.5 x_5 * x_29 - 15.0 x_5 * x_31 + 3.5 x_5 * x_32 + 14.5 x_5 * x_33 + 12.0 x_5 * x_34 - 15.5 x_5 * x_35 + 22.0 x_5 * x_38 - 19.5 x_5 * x_40 + 15.0 x_6 * x_2 + 4.5 x_6 * x_3 + 15.0 x_6 * x_4 + 14.0 x_6 * x_5 + 19.0 x_6 * x_8 + 12.0 x_6 * x_9 - 18.5 x_6 * x_16 - 4.5 x_6 * x_18 + 4.5 x_6 * x_21 - 8.5 x_6 * x_22 + 15.5 x_6 * x_25 + 17.5 x_6 * x_26 + 2.5 x_6 * x_27 - 23.5 x_6 * x_28 - 3.0 x_6 * x_31 - 9.0 x_6 * x_32 - 17.5 x_6 * x_35 + 3.5 x_7 * x_2 - 5.0 x_7 * x_3 + 13.0 x_7 * x_5 + 3.0 x_7 * x_9 - 9.5 x_7 * x_12 - 14.5 x_7 * x_13 + 24.5 x_7 * x_15 + 1.0 x_7 * x_16 - 1.0 x_7 * x_17 - 14.0 x_7 * x_19 + 2.0 x_7 * x_20 - 10.5 x_7 * x_21 - 3.0 x_7 * x_22 - 14.5 x_7 * x_23 + 1.0 x_7 * x_24 - 6.5 x_7 * x_27 - 9.0 x_7 * x_28 + 9.5 x_7 * x_29 - 19.0 x_7 * x_32 + 22.5 x_7 * x_34 - 24.5 x_7 * x_35 + 20.5 x_7 * x_36 - 8.5 x_7 * x_37 + 16.5 x_7 * x_38 - 13.5 x_7 * x_40 - 11.5 x_8 * x_1 - 2.0 x_8 * x_3 + 22.5 x_8 * x_4 - 21.5 x_8 * x_5 + 19.0 x_8 * x_6 - 0.5 x_8 * x_8 + 15.0 x_8 * x_11 - 21.5 x_8 * x_15 + 17.5 x_8 * x_16 + 1.5 x_8 * x_17 + 22.5 x_8 * x_18 - 19.5 x_8 * x_19 - 22.5 x_8 * x_20 + 4.0 x_8 * x_22 - 10.0 x_8 * x_26 - 21.5 x_8 * x_27 - 9.0 x_8 * x_28 + 2.0 x_8 * x_32 + 20.5 x_8 * x_35 - 12.5 x_8 * x_36 - 1.0 x_8 * x_39 + 11.5 x_8 * x_40 - 17.0 x_9 * x_1 + 20.5 x_9 * x_4 + 5.5 x_9 * x_5 + 12.0 x_9 * x_6 + 3.0 x_9 * x_7 - 22.0 x_9 * x_9 + 22.0 x_9 * x_10 - 10.0 x_9 * x_14 - 10.0 x_9 * x_17 - 21.0 x_9 * x_19 + 4.0 x_9 * x_20 + 13.0 x_9 * x_21 + 11.0 x_9 * x_24 - 22.0 x_9 * x_25 + 17.5 x_9 * x_26 - 14.5 x_9 * x_28 - 18.0 x_9 * x_30 - 5.0 x_9 * x_31 + 15.5 x_9 * x_32 - 5.5 x_9 * x_33 - 15.0 x_9 * x_34 - 10.5 x_9 * x_36 + 17.5 x_9 * x_38 - 20.0 x_9 * x_39 - 22.5 x_10 * x_1 - 15.0 x_10 * x_2 - 5.0 x_10 * x_4 + 24.5 x_10 * x_5 + 22.0 x_10 * x_9 - 11.0 x_10 * x_10 - 13.5 x_10 * x_11 + 4.0 x_10 * x_15 - 15.5 x_10 * x_16 - 15.5 x_10 * x_17 - 6.5 x_10 * x_19 + 7.0 x_10 * x_23 - 16.5 x_10 * x_24 - 10.5 x_10 * x_26 - 23.0 x_10 * x_29 + 8.5 x_10 * x_30 - 13.5 x_10 * x_31 + 15.5 x_10 * x_32 + 8.0 x_10 * x_36 - 14.0 x_10 * x_37 + 9.0 x_10 * x_40 + 10.5 x_11 * x_2 + 19.5 x_11 * x_3 - 18.5 x_11 * x_5 + 15.0 x_11 * x_8 - 13.5 x_11 * x_10 - 17.0 x_11 * x_11 + 9.5 x_11 * x_12 + 10.0 x_11 * x_14 - 23.0 x_11 * x_17 - 14.5 x_11 * x_19 - 14.0 x_11 * x_20 + 4.0 x_11 * x_21 + 22.0 x_11 * x_23 - 0.5 x_11 * x_24 + 24.5 x_11 * x_25 - 6.5 x_11 * x_28 + 8.5 x_11 * x_29 - 7.0 x_11 * x_30 + 20.5 x_11 * x_36 - 7.0 x_11 * x_37 - 18.0 x_12 * x_1 - 2.5 x_12 * x_2 - 8.5 x_12 * x_3 - 9.5 x_12 * x_7 + 9.5 x_12 * x_11 - 1.5 x_12 * x_12 + 18.0 x_12 * x_13 - 17.0 x_12 * x_15 + 21.5 x_12 * x_16 + 5.5 x_12 * x_17 + 15.0 x_12 * x_18 - 6.0 x_12 * x_20 - 21.5 x_12 * x_21 - 13.5 x_12 * x_23 - 6.0 x_12 * x_24 - 1.0 x_12 * x_25 - 3.5 x_12 * x_26 + 4.0 x_12 * x_27 - 19.5 x_12 * x_28 + 21.0 x_12 * x_29 - 24.5 x_12 * x_39 + 2.5 x_12 * x_40 - 4.5 x_13 * x_1 + 3.0 x_13 * x_3 - 24.0 x_13 * x_5 - 14.5 x_13 * x_7 + 18.0 x_13 * x_12 + 6.5 x_13 * x_15 - 9.0 x_13 * x_17 + 22.5 x_13 * x_21 - 19.0 x_13 * x_22 - 23.5 x_13 * x_24 + 6.5 x_13 * x_25 + 4.0 x_13 * x_26 + 9.0 x_13 * x_28 + 22.0 x_13 * x_35 - 24.0 x_13 * x_36 - 4.5 x_13 * x_37 - 6.5 x_13 * x_38 + 14.0 x_13 * x_39 + 18.0 x_14 * x_4 - 10.0 x_14 * x_9 + 10.0 x_14 * x_11 + 4.0 x_14 * x_14 + 19.5 x_14 * x_18 + 19.0 x_14 * x_19 - 20.0 x_14 * x_25 - 11.5 x_14 * x_26 + 19.0 x_14 * x_29 + 23.0 x_14 * x_32 + 8.5 x_14 * x_34 + 9.5 x_14 * x_37 + 13.0 x_14 * x_38 + 2.5 x_14 * x_40 + 21.0 x_15 * x_2 + 24.5 x_15 * x_7 - 21.5 x_15 * x_8 + 4.0 x_15 * x_10 - 17.0 x_15 * x_12 + 6.5 x_15 * x_13 - 5.0 x_15 * x_17 - 5.0 x_15 * x_20 + 14.5 x_15 * x_23 + 23.5 x_15 * x_24 + 9.0 x_15 * x_25 - 1.0 x_15 * x_26 + 7.0 x_15 * x_28 + 16.0 x_15 * x_31 + 16.5 x_15 * x_32 + 24.5 x_15 * x_34 + 1.5 x_15 * x_37 - 5.5 x_15 * x_38 - 24.0 x_16 * x_1 - 6.0 x_16 * x_3 - 18.5 x_16 * x_6 + 1.0 x_16 * x_7 + 17.5 x_16 * x_8 - 15.5 x_16 * x_10 + 21.5 x_16 * x_12 - 22.0 x_16 * x_17 + 3.0 x_16 * x_19 - 1.0 x_16 * x_21 + 16.5 x_16 * x_25 + 24.5 x_16 * x_26 + 12.0 x_16 * x_29 + 12.0 x_16 * x_32 - 1.5 x_16 * x_37 - 24.0 x_16 * x_38 + 9.5 x_16 * x_40 + 3.5 x_17 * x_2 + 21.5 x_17 * x_4 - 14.5 x_17 * x_5 - 1.0 x_17 * x_7 + 1.5 x_17 * x_8 - 10.0 x_17 * x_9 - 15.5 x_17 * x_10 - 23.0 x_17 * x_11 + 5.5 x_17 * x_12 - 9.0 x_17 * x_13 - 5.0 x_17 * x_15 - 22.0 x_17 * x_16 + 13.0 x_17 * x_18 + 17.5 x_17 * x_20 + 5.5 x_17 * x_22 + 16.5 x_17 * x_23 + 21.5 x_17 * x_26 + 13.0 x_17 * x_29 - 2.0 x_17 * x_30 - 10.5 x_17 * x_31 - 17.5 x_17 * x_36 - 20.0 x_17 * x_37 - 18.0 x_17 * x_38 - 3.5 x_17 * x_39 + 4.0 x_18 * x_1 - 10.0 x_18 * x_2 + 14.5 x_18 * x_3 - 15.0 x_18 * x_4 + 2.0 x_18 * x_5 - 4.5 x_18 * x_6 + 22.5 x_18 * x_8 + 15.0 x_18 * x_12 + 19.5 x_18 * x_14 + 13.0 x_18 * x_17 + 19.5 x_18 * x_22 + 10.5 x_18 * x_23 + 15.5 x_18 * x_25 - 9.5 x_18 * x_29 - 20.5 x_18 * x_30 + 10.5 x_18 * x_31 + 11.5 x_18 * x_34 - 18.0 x_18 * x_35 + 21.0 x_18 * x_37 - 23.5 x_18 * x_38 - 12.5 x_18 * x_39 + 14.5 x_18 * x_40 - 14.5 x_19 * x_1 - 14.0 x_19 * x_7 - 19.5 x_19 * x_8 - 21.0 x_19 * x_9 - 6.5 x_19 * x_10 - 14.5 x_19 * x_11 + 19.0 x_19 * x_14 + 3.0 x_19 * x_16 + 7.5 x_19 * x_20 + 19.0 x_19 * x_21 - 24.0 x_19 * x_28 + 9.0 x_19 * x_32 + 16.0 x_19 * x_33 + 6.5 x_19 * x_35 + 20.0 x_19 * x_37 - 23.0 x_20 * x_2 + 1.0 x_20 * x_4 - 1.5 x_20 * x_5 + 2.0 x_20 * x_7 - 22.5 x_20 * x_8 + 4.0 x_20 * x_9 - 14.0 x_20 * x_11 - 6.0 x_20 * x_12 - 5.0 x_20 * x_15 + 17.5 x_20 * x_17 + 7.5 x_20 * x_19 - 7.5 x_20 * x_24 + 4.0 x_20 * x_26 - 21.0 x_20 * x_28 - 15.5 x_20 * x_32 - 13.5 x_20 * x_33 - 22.0 x_20 * x_34 + 20.0 x_20 * x_35 - 6.0 x_20 * x_36 + 14.0 x_21 * x_3 - 6.5 x_21 * x_4 - 17.0 x_21 * x_5 + 4.5 x_21 * x_6 - 10.5 x_21 * x_7 + 13.0 x_21 * x_9 + 4.0 x_21 * x_11 - 21.5 x_21 * x_12 + 22.5 x_21 * x_13 - 1.0 x_21 * x_16 + 19.0 x_21 * x_19 - 16.5 x_21 * x_21 + 0.5 x_21 * x_23 + 4.5 x_21 * x_26 - 22.5 x_21 * x_27 - 2.5 x_21 * x_28 + 18.5 x_21 * x_37 + 6.5 x_21 * x_38 + 9.0 x_21 * x_40 - 12.5 x_22 * x_1 - 18.0 x_22 * x_3 + 2.0 x_22 * x_4 - 8.5 x_22 * x_6 - 3.0 x_22 * x_7 + 4.0 x_22 * x_8 - 19.0 x_22 * x_13 + 5.5 x_22 * x_17 + 19.5 x_22 * x_18 + 6.0 x_22 * x_22 + 5.5 x_22 * x_24 + 20.5 x_22 * x_27 + 20.5 x_22 * x_28 - 8.0 x_22 * x_29 - 7.0 x_22 * x_33 - 17.5 x_22 * x_36 - 20.5 x_22 * x_37 + 11.0 x_22 * x_38 + 4.5 x_22 * x_39 - 14.5 x_22 * x_40 + 20.5 x_23 * x_1 - 14.5 x_23 * x_7 + 7.0 x_23 * x_10 + 22.0 x_23 * x_11 - 13.5 x_23 * x_12 + 14.5 x_23 * x_15 + 16.5 x_23 * x_17 + 10.5 x_23 * x_18 + 0.5 x_23 * x_21 + 6.5 x_23 * x_24 - 6.0 x_23 * x_25 - 8.5 x_23 * x_28 + 17.0 x_23 * x_29 + 7.0 x_23 * x_35 + 13.0 x_23 * x_36 - 7.0 x_23 * x_37 - 20.0 x_23 * x_38 + 18.5 x_24 * x_3 + 8.0 x_24 * x_4 + 1.0 x_24 * x_7 + 11.0 x_24 * x_9 - 16.5 x_24 * x_10 - 0.5 x_24 * x_11 - 6.0 x_24 * x_12 - 23.5 x_24 * x_13 + 23.5 x_24 * x_15 - 7.5 x_24 * x_20 + 5.5 x_24 * x_22 + 6.5 x_24 * x_23 - 24.5 x_24 * x_24 - 9.0 x_24 * x_26 - 21.5 x_24 * x_29 + 5.0 x_24 * x_30 + 15.5 x_24 * x_31 - 18.0 x_24 * x_32 - 22.0 x_24 * x_33 + 13.0 x_24 * x_35 - 10.5 x_24 * x_36 + 15.0 x_24 * x_38 + 0.5 x_25 * x_1 + 12.0 x_25 * x_2 + 15.0 x_25 * x_3 + 18.0 x_25 * x_5 + 15.5 x_25 * x_6 - 22.0 x_25 * x_9 + 24.5 x_25 * x_11 - 1.0 x_25 * x_12 + 6.5 x_25 * x_13 - 20.0 x_25 * x_14 + 9.0 x_25 * x_15 + 16.5 x_25 * x_16 + 15.5 x_25 * x_18 - 6.0 x_25 * x_23 + 3.5 x_25 * x_25 + 2.5 x_25 * x_26 + 1.5 x_25 * x_27 + 22.0 x_25 * x_29 + 6.5 x_25 * x_30 - 6.0 x_25 * x_31 - 19.5 x_25 * x_34 + 10.5 x_25 * x_38 + 9.0 x_25 * x_39 - 20.0 x_25 * x_40 + 10.0 x_26 * x_5 + 17.5 x_26 * x_6 - 10.0 x_26 * x_8 + 17.5 x_26 * x_9 - 10.5 x_26 * x_10 - 3.5 x_26 * x_12 + 4.0 x_26 * x_13 - 11.5 x_26 * x_14 - 1.0 x_26 * x_15 + 24.5 x_26 * x_16 + 21.5 x_26 * x_17 + 4.0 x_26 * x_20 + 4.5 x_26 * x_21 - 9.0 x_26 * x_24 + 2.5 x_26 * x_25 - 0.5 x_26 * x_26 - 0.5 x_26 * x_27 - 7.0 x_26 * x_28 - 7.0 x_26 * x_29 + 2.0 x_26 * x_30 - 5.0 x_26 * x_32 + 5.0 x_26 * x_34 - 1.5 x_26 * x_36 - 0.5 x_26 * x_38 - 10.0 x_26 * x_39 - 14.0 x_26 * x_40 - 10.0 x_27 * x_2 + 10.5 x_27 * x_5 + 2.5 x_27 * x_6 - 6.5 x_27 * x_7 - 21.5 x_27 * x_8 + 4.0 x_27 * x_12 - 22.5 x_27 * x_21 + 20.5 x_27 * x_22 + 1.5 x_27 * x_25 - 0.5 x_27 * x_26 - 6.5 x_27 * x_29 + 16.0 x_27 * x_30 + 19.5 x_27 * x_31 - 3.5 x_27 * x_33 + 17.0 x_27 * x_36 - 11.0 x_27 * x_37 + 8.0 x_27 * x_38 + 21.0 x_27 * x_40 + 21.5 x_28 * x_3 - 23.5 x_28 * x_6 - 9.0 x_28 * x_7 - 9.0 x_28 * x_8 - 14.5 x_28 * x_9 - 6.5 x_28 * x_11 - 19.5 x_28 * x_12 + 9.0 x_28 * x_13 + 7.0 x_28 * x_15 - 24.0 x_28 * x_19 - 21.0 x_28 * x_20 - 2.5 x_28 * x_21 + 20.5 x_28 * x_22 - 8.5 x_28 * x_23 - 7.0 x_28 * x_26 - 5.5 x_28 * x_28 - 19.0 x_28 * x_29 + 15.5 x_28 * x_33 - 21.5 x_28 * x_34 - 4.5 x_28 * x_37 - 15.5 x_28 * x_39 - 20.0 x_29 * x_2 - 19.5 x_29 * x_4 + 17.5 x_29 * x_5 + 9.5 x_29 * x_7 - 23.0 x_29 * x_10 + 8.5 x_29 * x_11 + 21.0 x_29 * x_12 + 19.0 x_29 * x_14 + 12.0 x_29 * x_16 + 13.0 x_29 * x_17 - 9.5 x_29 * x_18 - 8.0 x_29 * x_22 + 17.0 x_29 * x_23 - 21.5 x_29 * x_24 + 22.0 x_29 * x_25 - 7.0 x_29 * x_26 - 6.5 x_29 * x_27 - 19.0 x_29 * x_28 - 18.0 x_29 * x_30 + 19.5 x_29 * x_31 + 1.0 x_29 * x_32 + 13.0 x_29 * x_37 - 24.5 x_29 * x_39 - 8.0 x_30 * x_2 - 3.0 x_30 * x_3 - 18.0 x_30 * x_9 + 8.5 x_30 * x_10 - 7.0 x_30 * x_11 - 2.0 x_30 * x_17 - 20.5 x_30 * x_18 + 5.0 x_30 * x_24 + 6.5 x_30 * x_25 + 2.0 x_30 * x_26 + 16.0 x_30 * x_27 - 18.0 x_30 * x_29 - 16.0 x_30 * x_30 + 6.0 x_30 * x_33 + 13.0 x_30 * x_34 - 21.0 x_30 * x_36 + 19.0 x_30 * x_37 - 1.5 x_30 * x_38 - 21.0 x_30 * x_39 + 5.5 x_31 * x_1 - 15.0 x_31 * x_5 - 3.0 x_31 * x_6 - 5.0 x_31 * x_9 - 13.5 x_31 * x_10 + 16.0 x_31 * x_15 - 10.5 x_31 * x_17 + 10.5 x_31 * x_18 + 15.5 x_31 * x_24 - 6.0 x_31 * x_25 + 19.5 x_31 * x_27 + 19.5 x_31 * x_29 + 17.5 x_31 * x_31 - 13.0 x_31 * x_33 - 24.5 x_31 * x_35 + 8.5 x_31 * x_36 - 0.5 x_31 * x_40 + 10.0 x_32 * x_1 - 13.5 x_32 * x_2 - 20.5 x_32 * x_3 + 3.5 x_32 * x_5 - 9.0 x_32 * x_6 - 19.0 x_32 * x_7 + 2.0 x_32 * x_8 + 15.5 x_32 * x_9 + 15.5 x_32 * x_10 + 23.0 x_32 * x_14 + 16.5 x_32 * x_15 + 12.0 x_32 * x_16 + 9.0 x_32 * x_19 - 15.5 x_32 * x_20 - 18.0 x_32 * x_24 - 5.0 x_32 * x_26 + 1.0 x_32 * x_29 - 7.5 x_32 * x_33 + 3.0 x_32 * x_36 + 12.5 x_32 * x_37 - 17.0 x_32 * x_38 + 22.0 x_32 * x_40 - 20.0 x_33 * x_2 + 14.5 x_33 * x_5 - 5.5 x_33 * x_9 + 16.0 x_33 * x_19 - 13.5 x_33 * x_20 - 7.0 x_33 * x_22 - 22.0 x_33 * x_24 - 3.5 x_33 * x_27 + 15.5 x_33 * x_28 + 6.0 x_33 * x_30 - 13.0 x_33 * x_31 - 7.5 x_33 * x_32 - 20.0 x_33 * x_33 - 13.0 x_33 * x_34 + 7.0 x_33 * x_35 - 24.5 x_33 * x_37 - 17.0 x_33 * x_38 - 4.5 x_34 * x_1 + 15.5 x_34 * x_2 - 5.5 x_34 * x_4 + 12.0 x_34 * x_5 + 22.5 x_34 * x_7 - 15.0 x_34 * x_9 + 8.5 x_34 * x_14 + 24.5 x_34 * x_15 + 11.5 x_34 * x_18 - 22.0 x_34 * x_20 - 19.5 x_34 * x_25 + 5.0 x_34 * x_26 - 21.5 x_34 * x_28 + 13.0 x_34 * x_30 - 13.0 x_34 * x_33 - 11.0 x_34 * x_34 + 13.5 x_34 * x_36 + 15.0 x_34 * x_37 + 0.5 x_34 * x_38 + 10.0 x_35 * x_1 + 8.0 x_35 * x_2 - 16.5 x_35 * x_4 - 15.5 x_35 * x_5 - 17.5 x_35 * x_6 - 24.5 x_35 * x_7 + 20.5 x_35 * x_8 + 22.0 x_35 * x_13 - 18.0 x_35 * x_18 + 6.5 x_35 * x_19 + 20.0 x_35 * x_20 + 7.0 x_35 * x_23 + 13.0 x_35 * x_24 - 24.5 x_35 * x_31 + 7.0 x_35 * x_33 + 1.0 x_35 * x_36 + 7.5 x_35 * x_38 + 5.0 x_35 * x_40 - 11.0 x_36 * x_1 + 23.0 x_36 * x_4 + 20.5 x_36 * x_7 - 12.5 x_36 * x_8 - 10.5 x_36 * x_9 + 8.0 x_36 * x_10 + 20.5 x_36 * x_11 - 24.0 x_36 * x_13 - 17.5 x_36 * x_17 - 6.0 x_36 * x_20 - 17.5 x_36 * x_22 + 13.0 x_36 * x_23 - 10.5 x_36 * x_24 - 1.5 x_36 * x_26 + 17.0 x_36 * x_27 - 21.0 x_36 * x_30 + 8.5 x_36 * x_31 + 3.0 x_36 * x_32 + 13.5 x_36 * x_34 + 1.0 x_36 * x_35 + 13.5 x_37 * x_1 + 16.5 x_37 * x_2 + 14.5 x_37 * x_4 - 8.5 x_37 * x_7 - 14.0 x_37 * x_10 - 7.0 x_37 * x_11 - 4.5 x_37 * x_13 + 9.5 x_37 * x_14 + 1.5 x_37 * x_15 - 1.5 x_37 * x_16 - 20.0 x_37 * x_17 + 21.0 x_37 * x_18 + 20.0 x_37 * x_19 + 18.5 x_37 * x_21 - 20.5 x_37 * x_22 - 7.0 x_37 * x_23 - 11.0 x_37 * x_27 - 4.5 x_37 * x_28 + 13.0 x_37 * x_29 + 19.0 x_37 * x_30 + 12.5 x_37 * x_32 - 24.5 x_37 * x_33 + 15.0 x_37 * x_34 + 3.0 x_37 * x_39 + 24.0 x_38 * x_4 + 22.0 x_38 * x_5 + 16.5 x_38 * x_7 + 17.5 x_38 * x_9 - 6.5 x_38 * x_13 + 13.0 x_38 * x_14 - 5.5 x_38 * x_15 - 24.0 x_38 * x_16 - 18.0 x_38 * x_17 - 23.5 x_38 * x_18 + 6.5 x_38 * x_21 + 11.0 x_38 * x_22 - 20.0 x_38 * x_23 + 15.0 x_38 * x_24 + 10.5 x_38 * x_25 - 0.5 x_38 * x_26 + 8.0 x_38 * x_27 - 1.5 x_38 * x_30 - 17.0 x_38 * x_32 - 17.0 x_38 * x_33 + 0.5 x_38 * x_34 + 7.5 x_38 * x_35 - 17.0 x_38 * x_40 - 5.0 x_39 * x_1 + 2.5 x_39 * x_2 - 3.0 x_39 * x_3 - 7.5 x_39 * x_4 - 1.0 x_39 * x_8 - 20.0 x_39 * x_9 - 24.5 x_39 * x_12 + 14.0 x_39 * x_13 - 3.5 x_39 * x_17 - 12.5 x_39 * x_18 + 4.5 x_39 * x_22 + 9.0 x_39 * x_25 - 10.0 x_39 * x_26 - 15.5 x_39 * x_28 - 24.5 x_39 * x_29 - 21.0 x_39 * x_30 + 3.0 x_39 * x_37 - 8.5 x_40 * x_2 - 19.5 x_40 * x_5 - 13.5 x_40 * x_7 + 11.5 x_40 * x_8 + 9.0 x_40 * x_10 + 2.5 x_40 * x_12 + 2.5 x_40 * x_14 + 9.5 x_40 * x_16 + 14.5 x_40 * x_18 + 9.0 x_40 * x_21 - 14.5 x_40 * x_22 - 20.0 x_40 * x_25 - 14.0 x_40 * x_26 + 21.0 x_40 * x_27 - 0.5 x_40 * x_31 + 22.0 x_40 * x_32 + 5.0 x_40 * x_35 - 17.0 x_40 * x_38 ] + 0.0 x_1 + 12.0 x_2 + 0.0 x_3 + 43.0 x_4 + 0.0 x_5 + 0.0 x_6 + 0.0 x_7 + 0.0 x_8 + 33.0 x_9 - 34.0 x_10 - 39.0 x_11 + 0.0 x_12 - 26.0 x_13 - 27.0 x_14 - 7.0 x_15 - 4.0 x_16 + 0.0 x_17 + 0.0 x_18 + 15.0 x_19 + 31.0 x_20 + 0.0 x_21 + 0.0 x_22 + 0.0 x_23 + 31.0 x_24 - 49.0 x_25 + 9.0 x_26 + 0.0 x_27 - 46.0 x_28 + 34.0 x_29 + 0.0 x_30 + 0.0 x_31 + 0.0 x_32 + 0.0 x_33 + 0.0 x_34 + 0.0 x_35 + 0.0 x_36 + 17.0 x_37 + 0.0 x_38 + 0.0 x_39 - 42.0 x_40

Subject To

Bounds
 x_1 <= 1.0
 x_2 <= 1.0
 x_3 <= 1.0
 x_4 <= 1.0
 x_5 <= 1.0
 x_6 <= 1.0
 x_7 <= 1.0
 x_8 <= 1.0
 x_9 <= 1.0
 x_10 <= 1.0
 x_11 <= 1.0
 x_12 <= 1.0
 x_13 <= 1.0
 x_14 <= 1.0
 x_15 <= 1.0
 x_16 <= 1.0
 x_17 <= 1.0
 x_18 <= 1.0
 x_19 <= 1.0
 x_20 <= 1.0
 x_21 <= 1.0
 x_22 <= 1.0
 x_23 <= 1.0
 x_24 <= 1.0
 x_25 <= 1.0
 x_26 <= 1.0
 x_27 <= 1.0
 x_28 <= 1.0
 x_29 <= 1.0
 x_30 <= 1.0
 x_31 <= 1.0
 x_32 <= 1.0
 x_33 <= 1.0
 x_34 <= 1.0
 x_35 <= 1.0
 x_36 <= 1.0
 x_37 <= 1.0
 x_38 <= 1.0
 x_39 <= 1.0
 x_40 <= 1.0

End